1
120
71
30 5
31 8
32 8
33 5
34 10
35 5
36 4
37 9
38 9
39 10
40 4
41 10
42 7
43 9
44 8
45 6
46 6
47 10
48 2
49 5
50 8
51 6
52 6
53 7
54 12
55 7
56 9
57 10
58 11
59 4
60 4
61 7
62 7
63 3
64 3
65 4
66 8
67 4
68 3
69 6
70 8
71 12
72 9
73 5
74 4
75 7
76 7
77 4
78 9
79 7
80 6
81 7
82 7
83 10
84 9
85 7
86 13
87 6
88 11
89 5
90 8
91 8
92 12
93 5
94 8
95 8
96 4
97 5
98 10
99 5
100 5
